weniger-krumme-touren/beispiele/random/50/500.txt.solution
[18, 17, 16, 15, 14, 19, 20, 45, 21, 22, 23, 24, 25, 26, 27, 28, 29, 30, 0, 34, 35, 36, 2, 3, 4, 39, 44, 40, 43, 8, 49, 48, 47, 46, 10, 11, 12, 13, 9, 7, 42, 41, 6, 5, 38, 1, 37, 31, 32, 33]